HUN,8,6,938
2,6,4,3,5,10,3,27
2,21,1,8,3,13,4,7,5,22
2,10,4,25,1,4,0,29,5,5
5,27,2,13,0,15,1,10,4,4,3,24
1,28,0,23,2,26,5,29,4,19,3,29
4,19,2,9,0,1,1,9,5,18
1,26,3,2,5,20,2,5,0,16,4,30
5,19,4,14,1,3,2,8,0,30,3,5
